Optimal - objective value 218.51000000
      0 x0_1                   1                    31.7
      5 x0_6                   1                   15.54
     20 x1_9                   1                       0
     31 x2_8                   1                       0
     46 x3_11                  1                       0
     50 x4_2                   1                       0
     63 x5_3                   1                       0
     81 x6_10                  1                       0
     95 x7_12                  1                       0
     96 x8_0                   1                       0
    113 x9_5                   1                       0
    124 x10_4                  1                       0
    139 x11_7                  1                       0
    144 x12_0                  1                   -1.59
    156 u1                     2                       0
    157 u2                    34                       0
    158 u3                    29                       0
    159 u4                    23                       0
    160 u5                    25                       0
    161 u6       8.00000000000001                       0
    162 u7                    35                       0
    163 u8                    38                       0
    164 u9                    14                       0
    165 u10                   11                       0
    166 u11                   31                       0
    167 u12                   38                       0
